NAME: huelva1010 Wadadi sidelgaum
TYPE: TOUR
DIMENSION : 10
SOLUTION: 427.94689798241086
TOUR_SECTION
0(36.0,45.0),0(31.0,43.0),0(29.0,30.0),0(18.0,38.0),0(15.0,21.0),0(9.0,18.0),0(12.0,4.0),0(26.0,11.0),0(31.0,10.0),0(47.0,26.0)
5.385164807134504 - 0,0
13.152946437965905 - 0,0
13.601470508735444 - 0,0
17.26267650163207 - 0,0
6.708203932499369 - 0,0
14.317821063276353 - 0,0
15.652475842498529 - 0,0
5.0990195135927845 - 0,0
22.627416997969522 - 0,0
21.95449840010015 - 0,0
EOF